Tried aggregator 2 times.
MIP Presolve eliminated 2 rows and 2 columns.
Aggregator did 1 substitutions.
Reduced MIP has 20998 rows, 27997 columns, and 69991 nonzeros.
Reduced MIP has 6999 binaries, 0 generals, 0 SOSs, and 0 indicators.
Presolve time = 0.06 sec. (44.49 ticks)
Found incumbent of value 863005.981087 after 0.11 sec. (80.79 ticks)
Probing fixed 0 vars, tightened 584 bounds.
Probing time = 0.02 sec. (3.16 ticks)
Tried aggregator 1 time.
MIP Presolve modified 1168 coefficients.
Reduced MIP has 20998 rows, 27997 columns, and 69991 nonzeros.
Reduced MIP has 6999 binaries, 0 generals, 0 SOSs, and 0 indicators.
Presolve time = 0.07 sec. (36.99 ticks)
Probing time = 0.01 sec. (2.30 ticks)
MIP emphasis: balance optimality and feasibility.
MIP search method: dynamic search.
Parallel mode: deterministic, using up to 20 threads.
Root relaxation solution time = 0.23 sec. (285.90 ticks)

        Nodes                                         Cuts/
   Node  Left     Objective  IInf  Best Integer    Best Bound    ItCnt     Gap

*     0+    0                       863005.9811   1.90509e+09              --- 
*     0+    0                       888359.2226   1.90509e+09              --- 
      0     0   6.16392e+08   249   888359.2226   6.16392e+08     3512     --- 
*     0+    0                       6.01599e+08   6.16392e+08             2.46%
*     0+    0                       6.09057e+08   6.16392e+08             1.20%
      0     0   6.16113e+08   119   6.09057e+08      Cuts: 65     3541    1.16%
*     0+    0                       6.09381e+08   6.16113e+08             1.10%
*     0+    0                       6.09399e+08   6.16113e+08             1.10%
      0     2   6.16113e+08   119   6.09399e+08   6.16113e+08     3541    1.10%
Elapsed time = 1.81 sec. (1278.14 ticks, tree = 0.01 MB, solutions = 6)
*     4+    4                       6.09452e+08   6.16111e+08             1.09%
      4     6   6.16016e+08   118   6.09452e+08   6.16111e+08     3548    1.09%
      5     7   6.15925e+08   117   6.09452e+08   6.16111e+08     3550    1.09%
      6     8   6.16015e+08   119   6.09452e+08   6.16111e+08     3552    1.09%
      7     9   6.15924e+08   118   6.09452e+08   6.16111e+08     3554    1.09%
      8    10   6.15902e+08   117   6.09452e+08   6.16111e+08     3557    1.09%
      9    11   6.15685e+08   116   6.09452e+08   6.16111e+08     3561    1.09%
     10    12   6.16018e+08   117   6.09452e+08   6.16110e+08     3563    1.09%
     11    13   6.16014e+08   120   6.09452e+08   6.16110e+08     3565    1.09%
     12    14   6.15684e+08   117   6.09452e+08   6.16110e+08     3567    1.09%
*    35+   35                       6.09506e+08   6.16110e+08             1.08%
    295   297   6.14815e+08   108   6.09506e+08   6.16110e+08     4187    1.08%
Elapsed time = 3.14 sec. (2273.63 ticks, tree = 0.11 MB, solutions = 9)
   2565  2567   6.14299e+08    92   6.09506e+08   6.16110e+08    10171    1.08%
   2567  2569   6.13006e+08    80   6.09506e+08   6.16110e+08    10176    1.08%
   2569  2571   6.13488e+08    85   6.09506e+08   6.16110e+08    10180    1.08%
   2576  2578   6.12770e+08    76   6.09506e+08   6.16110e+08    10195    1.08%
   2580  2582   6.13304e+08    82   6.09506e+08   6.16110e+08    10205    1.08%
   2582  2584   6.13776e+08    84   6.09506e+08   6.16110e+08    10207    1.08%
   2583  2585   6.13625e+08    84   6.09506e+08   6.16110e+08    10208    1.08%
   2584  2586   6.13430e+08    83   6.09506e+08   6.16110e+08    10209    1.08%
   2585  2587   6.14410e+08    94   6.09506e+08   6.16110e+08    10211    1.08%
   2586  2588   6.14166e+08    94   6.09506e+08   6.16110e+08    10213    1.08%
Elapsed time = 5.09 sec. (3231.22 ticks, tree = 7.95 MB, solutions = 9)
*  2945+ 2945                       6.09627e+08   6.16110e+08             1.06%
*  2961+ 2961                       6.09651e+08   6.16110e+08             1.06%
*  2961+ 2961                       6.09751e+08   6.16110e+08             1.04%
*  3145+ 3145                       6.09760e+08   6.16110e+08             1.04%
*  3345+ 3345                       6.09789e+08   6.16110e+08             1.04%
*  3611+ 3611                       6.09834e+08   6.16110e+08             1.03%
   4449  4451   6.12304e+08    64   6.09834e+08   6.16110e+08    14653    1.03%
   4468  4470   6.11513e+08    68   6.09834e+08   6.16110e+08    14733    1.03%
   4469  4471   6.11981e+08    63   6.09834e+08   6.16110e+08    14738    1.03%
   4487  4489   6.12229e+08    65   6.09834e+08   6.16110e+08    14783    1.03%
   4488  4490   6.12354e+08    68   6.09834e+08   6.16110e+08    14784    1.03%
   4489  4491   6.12295e+08    64   6.09834e+08   6.16110e+08    14785    1.03%
   4507  4509   6.12193e+08    64   6.09834e+08   6.16110e+08    14824    1.03%
   4508  4510   6.12318e+08    67   6.09834e+08   6.16110e+08    14825    1.03%
   4509  4511   6.12098e+08    63   6.09834e+08   6.16110e+08    14830    1.03%
   4511  4513   6.12941e+08    75   6.09834e+08   6.16110e+08    14832    1.03%
Elapsed time = 7.02 sec. (4190.84 ticks, tree = 16.65 MB, solutions = 31)
*  5253+ 5253                       6.09872e+08   6.16110e+08             1.02%
*  5735+ 5735                       6.10034e+08   6.16110e+08             1.00%
   5735  5736   6.11054e+08    48   6.10034e+08   6.16110e+08    19358    1.00%
   5736  5737   6.10583e+08    49   6.10034e+08   6.16110e+08    19364    1.00%
*  5737+ 5735                       6.10149e+08   6.16110e+08             0.98%
   5737  5733   6.11435e+08    55   6.10149e+08   6.16110e+08    19379    0.98%
   5738  5732   6.11357e+08    54   6.10149e+08   6.16110e+08    19386    0.98%
   5739  5733   6.10174e+08    48   6.10149e+08   6.16110e+08    19392    0.98%

Mixed integer rounding cuts applied:  46
Gomory fractional cuts applied:  16

Root node processing (before b&c):
  Real time             =    1.67 sec. (1260.47 ticks)
Parallel b&c, 20 threads:
  Real time             =    8.56 sec. (5466.80 ticks)
  Sync time (average)   =    2.52 sec.
  Wait time (average)   =    2.82 sec.
                          ------------
Total (root+branch&cut) =   10.24 sec. (6727.28 ticks)
MKLROOT=/global/software/sl-6.x86_64/modules/langs/intel/2015.6.233/mkl
SLURM_CHECKPOINT_IMAGE_DIR=/var/slurm/checkpoint
SLURM_NODELIST=n0015.savio1
MANPATH=/global/software/sl-6.x86_64/modules/langs/julia/0.5.0/share/man:/global/software/sl-6.x86_64/modules/langs/intel/2015.6.233/man/en_US:/global/software/sl-6.x86_64/modules/langs/gcc/4.8.5/share/man:/usr/share/man
SLURM_JOB_NAME=aggregator
SLURMD_NODENAME=n0015.savio1
SLURM_TOPOLOGY_ADDR=ib-savio.ib-savio-00.n0015.savio1
HOSTNAME=n0015.savio1
SLURM_PRIO_PROCESS=0
SLURM_NODE_ALIASES=(null)
SHELL=/bin/bash
TERM=xterm-256color
SLURM_JOB_QOS=savio_normal
HISTSIZE=1000
TMPDIR=/tmp
SLURM_TOPOLOGY_ADDR_PATTERN=switch.switch.node
SSH_CLIENT=10.142.114.6 63404 22
LIBRARY_PATH=/global/software/sl-6.x86_64/modules/langs/julia/0.5.0/lib/julia:/global/software/sl-6.x86_64/modules/langs/intel/2015.6.233/mkl/lib/intel64:/global/software/sl-6.x86_64/modules/langs/gcc/4.8.5/lib64:/global/software/sl-6.x86_64/modules/langs/gcc/4.8.5/lib
GCC_DIR=/global/software/sl-6.x86_64/modules/langs/gcc/4.8.5
FPATH=/global/software/sl-6.x86_64/modules/langs/intel/2015.6.233/mkl/include/fftw:/global/software/sl-6.x86_64/modules/langs/intel/2015.6.233/mkl/include
SSH_TTY=/dev/pts/23
SLURM_NNODES=1
USER=jdlara
LS_COLORS=rs=0:di=38;5;27:ln=38;5;51:mh=44;38;5;15:pi=40;38;5;11:so=38;5;13:do=38;5;5:bd=48;5;232;38;5;11:cd=48;5;232;38;5;3:or=48;5;232;38;5;9:mi=05;48;5;232;38;5;15:su=48;5;196;38;5;15:sg=48;5;11;38;5;16:ca=48;5;196;38;5;226:tw=48;5;10;38;5;16:ow=48;5;10;38;5;21:st=48;5;21;38;5;15:ex=38;5;34:*.tar=38;5;9:*.tgz=38;5;9:*.arj=38;5;9:*.taz=38;5;9:*.lzh=38;5;9:*.lzma=38;5;9:*.tlz=38;5;9:*.txz=38;5;9:*.zip=38;5;9:*.z=38;5;9:*.Z=38;5;9:*.dz=38;5;9:*.gz=38;5;9:*.lz=38;5;9:*.xz=38;5;9:*.bz2=38;5;9:*.tbz=38;5;9:*.tbz2=38;5;9:*.bz=38;5;9:*.tz=38;5;9:*.deb=38;5;9:*.rpm=38;5;9:*.jar=38;5;9:*.rar=38;5;9:*.ace=38;5;9:*.zoo=38;5;9:*.cpio=38;5;9:*.7z=38;5;9:*.rz=38;5;9:*.jpg=38;5;13:*.jpeg=38;5;13:*.gif=38;5;13:*.bmp=38;5;13:*.pbm=38;5;13:*.pgm=38;5;13:*.ppm=38;5;13:*.tga=38;5;13:*.xbm=38;5;13:*.xpm=38;5;13:*.tif=38;5;13:*.tiff=38;5;13:*.png=38;5;13:*.svg=38;5;13:*.svgz=38;5;13:*.mng=38;5;13:*.pcx=38;5;13:*.mov=38;5;13:*.mpg=38;5;13:*.mpeg=38;5;13:*.m2v=38;5;13:*.mkv=38;5;13:*.ogm=38;5;13:*.mp4=38;5;13:*.m4v=38;5;13:*.mp4v=38;5;13:*.vob=38;5;13:*.qt=38;5;13:*.nuv=38;5;13:*.wmv=38;5;13:*.asf=38;5;13:*.rm=38;5;13:*.rmvb=38;5;13:*.flc=38;5;13:*.avi=38;5;13:*.fli=38;5;13:*.flv=38;5;13:*.gl=38;5;13:*.dl=38;5;13:*.xcf=38;5;13:*.xwd=38;5;13:*.yuv=38;5;13:*.cgm=38;5;13:*.emf=38;5;13:*.axv=38;5;13:*.anx=38;5;13:*.ogv=38;5;13:*.ogx=38;5;13:*.aac=38;5;45:*.au=38;5;45:*.flac=38;5;45:*.mid=38;5;45:*.midi=38;5;45:*.mka=38;5;45:*.mp3=38;5;45:*.mpc=38;5;45:*.ogg=38;5;45:*.ra=38;5;45:*.wav=38;5;45:*.axa=38;5;45:*.oga=38;5;45:*.spx=38;5;45:*.xspf=38;5;45:
LD_LIBRARY_PATH=/global/software/sl-6.x86_64/modules/langs/julia/0.5.0/lib/julia:/global/software/sl-6.x86_64/modules/langs/intel/2015.6.233/mkl/lib/intel64:/global/software/sl-6.x86_64/modules/langs/gcc/4.8.5/lib64:/global/software/sl-6.x86_64/modules/langs/gcc/4.8.5/lib:/global/home/users/jdlara/gurobi652/linux64/lib
CPATH=/global/software/sl-6.x86_64/modules/langs/julia/0.5.0/include:/global/software/sl-6.x86_64/modules/langs/intel/2015.6.233/mkl/include/fftw:/global/software/sl-6.x86_64/modules/langs/intel/2015.6.233/mkl/include:/global/software/sl-6.x86_64/modules/langs/gcc/4.8.5/include
SLURM_JOBID=1221981
NLSPATH=/global/software/sl-6.x86_64/modules/langs/intel/2015.6.233/mkl/lib/intel64/locale/en_US
SLURM_TASKS_PER_NODE=20
PATH=/global/software/sl-6.x86_64/modules/langs/julia/0.5.0/bin:/global/software/sl-6.x86_64/modules/langs/gcc/4.8.5/bin:/usr/local/bin:/bin:/usr/bin:/usr/local/sbin:/usr/sbin:/sbin:/global/home/groups/allhands/bin:/global/home/users/jdlara/gurobi652/linux64/bin:/global/home/users/jdlara/bin:/global/home/users/jdlara/gurobi652/linux64/bin
MAIL=/var/spool/mail/jdlara
SLURM_JOB_ID=1221981
SLURM_JOB_USER=jdlara
PWD=/global/home/users/jdlara/Julia_testcodes/aggregator_model
_LMFILES_=/global/software/sl-6.x86_64/modfiles/langs/gcc/4.8.5:/global/software/sl-6.x86_64/modfiles/gcc/4.8.5/mkl/2015.6.233:/global/software/sl-6.x86_64/modfiles/langs/julia/0.5.0
CUDA_VISIBLE_DEVICES=NoDevFiles
MODULEPATH=/global/software/sl-6.x86_64/modfiles/tools:/global/software/sl-6.x86_64/modfiles/langs:/global/software/sl-6.x86_64/modfiles/julia/0.5.0:/global/software/sl-6.x86_64/modfiles/gcc/4.8.5
SLURM_JOB_UID=42745
LOADEDMODULES=gcc/4.8.5:mkl/2015.6.233:julia/0.5.0
SLURM_NODEID=0
SLURM_SUBMIT_DIR=/global/home/users/jdlara/Julia_testcodes/aggregator_model
SLURM_TASK_PID=65383
LM_LICENSE_FILE=28518@lmgr0.hpcs.lbl.gov
SLURM_CPUS_ON_NODE=20
JULIA_DIR=/global/software/sl-6.x86_64/modules/langs/julia/0.5.0
SLURM_PROCID=0
ENVIRONMENT=BATCH
HISTCONTROL=ignoredups
ALLHANDS_BASHRC=1
MKL_DIR=/global/software/sl-6.x86_64/modules/langs/intel/2015.6.233/mkl
SLURM_JOB_NODELIST=n0015.savio1
HOME=/global/home/users/jdlara
SHLVL=2
SLURM_LOCALID=0
SLURM_JOB_CPUS_PER_NODE=20
SLURM_CLUSTER_NAME=brc
SLURM_GTIDS=0
SLURM_SUBMIT_HOST=ln001
SLURM_JOB_PARTITION=savio
LOGNAME=jdlara
CVS_RSH=ssh
GPU_DEVICE_ORDINAL=NoDevFiles
SLURM_JOB_ACCOUNT=fc_emac
SSH_CONNECTION=10.142.114.6 63404 10.0.0.21 22
SLURM_JOB_NUM_NODES=1
MODULESHOME=/usr/Modules
LESSOPEN=||/usr/bin/lesspipe.sh %s
INFOPATH=/global/software/sl-6.x86_64/modules/langs/gcc/4.8.5/share/info
INCLUDE=/global/software/sl-6.x86_64/modules/langs/julia/0.5.0/include:/global/software/sl-6.x86_64/modules/langs/intel/2015.6.233/mkl/include/fftw:/global/software/sl-6.x86_64/modules/langs/intel/2015.6.233/mkl/include:/global/software/sl-6.x86_64/modules/langs/gcc/4.8.5/include
SLURM_MEM_PER_NODE=64000
G_BROKEN_FILENAMES=1
BASH_FUNC_module()=() {  logger "$HOSTNAME $USER: module $*";
 eval `/usr/Modules/bin/modulecmd bash $*`
}
_=/bin/env
